train/id=168_n=25_m=106.cnf
p cnf 25 106
16 -17 -20 0
-12 14 -17 0
1 4 12 0
-6 -8 -12 0
20 21 -23 0
-4 -11 -22 0
-8 16 20 0
-8 19 23 0
3 17 -20 0
7 16 21 0
2 8 14 0
8 -9 13 0
-8 -11 -14 0
3 -9 23 0
-6 10 15 0
6 -10 11 0
-7 15 16 0
-1 -21 24 0
3 -10 15 0
-3 -20 -21 0
17 -20 -22 0
-7 -12 24 0
-6 -8 -15 0
-3 -15 -24 0
7 -11 -25 0
3 5 12 0
4 -17 -18 0
-2 -10 -16 0
5 -13 -23 0
14 -16 -24 0
-5 16 23 0
5 -6 14 0
4 -12 -23 0
-1 7 14 0
-10 -12 -17 0
-12 -13 20 0
5 8 9 0
6 9 24 0
-18 -21 -24 0
-16 -20 -23 0
13 -22 -24 0
-6 -10 -16 0
-11 -12 21 0
-4 -5 -11 0
10 15 16 0
-6 -18 -20 0
-9 -16 23 0
-3 4 6 0
2 23 -24 0
-2 -6 -7 0
-5 6 23 0
-2 8 23 0
10 17 -22 0
1 -2 14 0
-4 -16 -25 0
-1 -17 22 0
12 -21 25 0
-2 -14 -19 0
-4 14 -20 0
1 -6 18 0
2 14 18 0
8 -13 25 0
6 -23 -25 0
8 -15 -17 0
2 -3 -25 0
11 18 -20 0
1 -2 -11 0
3 8 -25 0
6 10 20 0
3 -17 20 0
2 -11 14 0
11 -12 24 0
4 -9 12 0
-3 4 -19 0
3 10 -20 0
-17 -19 -20 0
7 -16 23 0
9 15 23 0
-1 7 -24 0
6 -7 -21 0
2 4 5 0
1 15 -21 0
1 -9 -14 0
-4 -11 14 0
9 19 20 0
-14 -16 -23 0
7 11 23 0
-5 -15 -16 0
-2 8 -25 0
9 23 -25 0
1 8 -19 0
-5 8 11 0
-2 8 22 0
1 -12 -23 0
-6 20 25 0
14 22 -24 0
3 -4 -17 0
-5 11 -21 0
-6 11 22 0
-15 19 -22 0
2 17 -24 0
-8 9 24 0
4 15 24 0
5 16 -21 0
-21 -22 -25 0
2 6 -21 0
