train/id=168_n=25_m=106.wcnf
p wcnf 25 106 1000
1000 16 -17 -20 0
1000 -12 14 -17 0
1000 1 4 12 0
84 -6 -8 -12 0
1000 20 21 -23 0
1000 -4 -11 -22 0
1000 -8 16 20 0
1000 -8 19 23 0
35 3 17 -20 0
18 7 16 21 0
77 2 8 14 0
48 8 -9 13 0
63 -8 -11 -14 0
42 3 -9 23 0
1000 -6 10 15 0
1000 6 -10 11 0
1000 -7 15 16 0
1000 -1 -21 24 0
1000 3 -10 15 0
1000 -3 -20 -21 0
1000 17 -20 -22 0
1000 -7 -12 24 0
1000 -6 -8 -15 0
1000 -3 -15 -24 0
1000 7 -11 -25 0
5 3 5 12 0
1000 4 -17 -18 0
1000 -2 -10 -16 0
1000 5 -13 -23 0
1000 14 -16 -24 0
1000 -5 16 23 0
1000 5 -6 14 0
1000 4 -12 -23 0
1000 -1 7 14 0
1000 -10 -12 -17 0
1000 -12 -13 20 0
1000 5 8 9 0
1000 6 9 24 0
1000 -18 -21 -24 0
17 -16 -20 -23 0
1000 13 -22 -24 0
74 -6 -10 -16 0
1000 -11 -12 21 0
1000 -4 -5 -11 0
50 10 15 16 0
1000 -6 -18 -20 0
1000 -9 -16 23 0
1000 -3 4 6 0
1000 2 23 -24 0
1000 -2 -6 -7 0
10 -5 6 23 0
1000 -2 8 23 0
1000 10 17 -22 0
1000 1 -2 14 0
1000 -4 -16 -25 0
1000 -1 -17 22 0
56 12 -21 25 0
1000 -2 -14 -19 0
1000 -4 14 -20 0
1000 1 -6 18 0
1000 2 14 18 0
1000 8 -13 25 0
1000 6 -23 -25 0
1000 8 -15 -17 0
1000 2 -3 -25 0
1000 11 18 -20 0
1000 1 -2 -11 0
1000 3 8 -25 0
1000 6 10 20 0
1000 3 -17 20 0
1000 2 -11 14 0
1000 11 -12 24 0
1000 4 -9 12 0
1000 -3 4 -19 0
1000 3 10 -20 0
1000 -17 -19 -20 0
1000 7 -16 23 0
1000 9 15 23 0
1000 -1 7 -24 0
1000 6 -7 -21 0
1000 2 4 5 0
1000 1 15 -21 0
1000 1 -9 -14 0
1000 -4 -11 14 0
1000 9 19 20 0
1000 -14 -16 -23 0
1000 7 11 23 0
1000 -5 -15 -16 0
51 -2 8 -25 0
1000 9 23 -25 0
1000 1 8 -19 0
11 -5 8 11 0
15 -2 8 22 0
51 1 -12 -23 0
28 -6 20 25 0
1000 14 22 -24 0
1000 3 -4 -17 0
1000 -5 11 -21 0
1000 -6 11 22 0
41 -15 19 -22 0
1000 2 17 -24 0
1000 -8 9 24 0
1000 4 15 24 0
1000 5 16 -21 0
1000 -21 -22 -25 0
91 2 6 -21 0
